90 15281583
90 17 60 20 32 68 63 33 9 86 89 2 15 29 82 40 80 78 81 6 58 12 72 62 65 84 49 53 73 47 18 3 38 41 46 76 25 24 54 83 16 14 31 50 56 85 57 64 66 44 88 52 1 7 30 10 69 55 61 59 77 75 4 79 51 37 22 26 5 70 27 19 67 42 13 34 45 71 39 43 21 87 28 23 36 74 35 48 8 11 
